Optimal - objective value -3726.00000000
      2 x_2                    1                       0
     28 x_28                   1                       0
     47 x_47                   1                       0
    122 x_122                  1                     -23
    150 x_150                  1         -1.11111111111111
    152 x_152                  1                     -14
    154 x_154                  1                       0
    204 x_204                  1                       0
    224 x_224                  1                       0
    291 x_291                  1         15.4102564102564
    381 x_381                  1                      -3
    423 x_423                  1                       0
    452 x_452                  1                     -25
    478 x_478                  1                       0
    535 x_535                  1                       0
    667 x_667                  1                       0
    682 x_682                  1                     -85
    690 x_690                  1                       0
    693 x_693                  1                       0
    700 x_700                  1                       0
    759 x_759                  1                       0
    774 x_774                  1         -59.3076923076923
    785 x_785                  1                       0
    814 x_814                  1         8.14529914529915
    826 x_826                  1                       0
    866 x_866                  1                       0
    868 x_868                  1                       0
    874 x_874                  1         138.410256410256
    899 x_899                  1                     -25
    923 x_923                  1                       0
    938 x_938                  1                     -52
    958 x_958                  1                       0
    981 x_981                  1                       0
   1007 x_1007                 1                      14
   1013 x_1013                 1                       0
   1022 x_1022                 1                       0
   1034 x_1034                 1         22.2307692307692
   1040 x_1040                 1                       0
   1044 x_1044                 1                       0
   1047 x_1047                 1                       0
   1182 x_1182                 1                       0
   1186 x_1186                 1         8.78632478632478
   1264 x_1264                 1                       5
   1370 x_1370                 1         23.008547008547
   1413 x_1413                 1                       0
   1414 x_1414                 1         -5.86324786324788
   1430 x_1430                 1         -10.4444444444444
   1453 x_1453                 1                       0
   1522 x_1522                 1                      15
   1524 x_1524                 1         -59.5555555555556
   1531 x_1531                 1                       0
   1563 x_1563                 1                       0
   1596 x_1596                 1                       0
   1598 x_1598                 1                       0
